<?xml version = "1.0" encoding="UTF-8" standalone="yes"?>
<CPLEXSolution version="1.2">
 <header
   problemName="BKZ20-SVP_n40_seed0.lp"
   solutionName="incumbent"
   solutionIndex="-1"
   objectiveValue="2898385"
   solutionTypeValue="3"
   solutionTypeString="primal"
   solutionStatusValue="101"
   solutionStatusString="integer optimal solution"
   solutionMethodString="mip"
   primalFeasible="1"
   dualFeasible="1"
   MIPNodes="8246316"
   MIPIterations="54786385"
   writeLevel="1"/>
 <quality
   epInt="1.0000000000000001e-05"
   epRHS="9.9999999999999995e-07"
   maxIntInfeas="4.4408920985006262e-16"
   maxPrimalInfeas="4.4408920985006262e-16"
   maxX="4"
   maxSlack="41"/>
 <linearConstraints>
  <constraint name="xpm0" index="0" slack="0"/>
  <constraint name="xp0" index="1" slack="0"/>
  <constraint name="xm0" index="2" slack="0"/>
  <constraint name="xpm1" index="3" slack="0"/>
  <constraint name="xp1" index="4" slack="0"/>
  <constraint name="xm1" index="5" slack="0"/>
  <constraint name="xpm2" index="6" slack="0"/>
  <constraint name="xp2" index="7" slack="0"/>
  <constraint name="xm2" index="8" slack="0"/>
  <constraint name="xpm3" index="9" slack="0"/>
  <constraint name="xp3" index="10" slack="0"/>
  <constraint name="xm3" index="11" slack="0"/>
  <constraint name="xpm4" index="12" slack="-4.4408920985006262e-16"/>
  <constraint name="xp4" index="13" slack="0"/>
  <constraint name="xm4" index="14" slack="0"/>
  <constraint name="xpm5" index="15" slack="0"/>
  <constraint name="xp5" index="16" slack="0"/>
  <constraint name="xm5" index="17" slack="0"/>
  <constraint name="xpm6" index="18" slack="0"/>
  <constraint name="xp6" index="19" slack="0"/>
  <constraint name="xm6" index="20" slack="0"/>
  <constraint name="xpm7" index="21" slack="0"/>
  <constraint name="xp7" index="22" slack="0"/>
  <constraint name="xm7" index="23" slack="0"/>
  <constraint name="xpm8" index="24" slack="0"/>
  <constraint name="xp8" index="25" slack="0"/>
  <constraint name="xm8" index="26" slack="0"/>
  <constraint name="xpm9" index="27" slack="0"/>
  <constraint name="xp9" index="28" slack="0"/>
  <constraint name="xm9" index="29" slack="0"/>
  <constraint name="xpm10" index="30" slack="0"/>
  <constraint name="xp10" index="31" slack="0"/>
  <constraint name="xm10" index="32" slack="0"/>
  <constraint name="xpm11" index="33" slack="0"/>
  <constraint name="xp11" index="34" slack="0"/>
  <constraint name="xm11" index="35" slack="0"/>
  <constraint name="xpm12" index="36" slack="1.1102230246251565e-16"/>
  <constraint name="xp12" index="37" slack="0"/>
  <constraint name="xm12" index="38" slack="0"/>
  <constraint name="xpm13" index="39" slack="0"/>
  <constraint name="xp13" index="40" slack="0"/>
  <constraint name="xm13" index="41" slack="0"/>
  <constraint name="xpm14" index="42" slack="0"/>
  <constraint name="xp14" index="43" slack="0"/>
  <constraint name="xm14" index="44" slack="0"/>
  <constraint name="xpm15" index="45" slack="0"/>
  <constraint name="xp15" index="46" slack="0"/>
  <constraint name="xm15" index="47" slack="0"/>
  <constraint name="xpm16" index="48" slack="0"/>
  <constraint name="xp16" index="49" slack="0"/>
  <constraint name="xm16" index="50" slack="0"/>
  <constraint name="xpm17" index="51" slack="0"/>
  <constraint name="xp17" index="52" slack="0"/>
  <constraint name="xm17" index="53" slack="0"/>
  <constraint name="xpm18" index="54" slack="0"/>
  <constraint name="xp18" index="55" slack="0"/>
  <constraint name="xm18" index="56" slack="0"/>
  <constraint name="xpm19" index="57" slack="0"/>
  <constraint name="xp19" index="58" slack="0"/>
  <constraint name="xm19" index="59" slack="0"/>
  <constraint name="xpm20" index="60" slack="0"/>
  <constraint name="xp20" index="61" slack="0"/>
  <constraint name="xm20" index="62" slack="0"/>
  <constraint name="xpm21" index="63" slack="1.1102230246251565e-16"/>
  <constraint name="xp21" index="64" slack="0"/>
  <constraint name="xm21" index="65" slack="0"/>
  <constraint name="xpm22" index="66" slack="0"/>
  <constraint name="xp22" index="67" slack="0"/>
  <constraint name="xm22" index="68" slack="0"/>
  <constraint name="xpm23" index="69" slack="0"/>
  <constraint name="xp23" index="70" slack="0"/>
  <constraint name="xm23" index="71" slack="0"/>
  <constraint name="xpm24" index="72" slack="0"/>
  <constraint name="xp24" index="73" slack="0"/>
  <constraint name="xm24" index="74" slack="0"/>
  <constraint name="xpm25" index="75" slack="0"/>
  <constraint name="xp25" index="76" slack="0"/>
  <constraint name="xm25" index="77" slack="0"/>
  <constraint name="xpm26" index="78" slack="0"/>
  <constraint name="xp26" index="79" slack="0"/>
  <constraint name="xm26" index="80" slack="0"/>
  <constraint name="xpm27" index="81" slack="0"/>
  <constraint name="xp27" index="82" slack="0"/>
  <constraint name="xm27" index="83" slack="0"/>
  <constraint name="xpm28" index="84" slack="0"/>
  <constraint name="xp28" index="85" slack="0"/>
  <constraint name="xm28" index="86" slack="0"/>
  <constraint name="xpm29" index="87" slack="0"/>
  <constraint name="xp29" index="88" slack="0"/>
  <constraint name="xm29" index="89" slack="0"/>
  <constraint name="xpm30" index="90" slack="0"/>
  <constraint name="xp30" index="91" slack="0"/>
  <constraint name="xm30" index="92" slack="0"/>
  <constraint name="xpm31" index="93" slack="0"/>
  <constraint name="xp31" index="94" slack="0"/>
  <constraint name="xm31" index="95" slack="0"/>
  <constraint name="xpm32" index="96" slack="0"/>
  <constraint name="xp32" index="97" slack="0"/>
  <constraint name="xm32" index="98" slack="0"/>
  <constraint name="xpm33" index="99" slack="0"/>
  <constraint name="xp33" index="100" slack="0"/>
  <constraint name="xm33" index="101" slack="0"/>
  <constraint name="xpm34" index="102" slack="0"/>
  <constraint name="xp34" index="103" slack="0"/>
  <constraint name="xm34" index="104" slack="0"/>
  <constraint name="xpm35" index="105" slack="0"/>
  <constraint name="xp35" index="106" slack="0"/>
  <constraint name="xm35" index="107" slack="0"/>
  <constraint name="xpm36" index="108" slack="0"/>
  <constraint name="xp36" index="109" slack="0"/>
  <constraint name="xm36" index="110" slack="0"/>
  <constraint name="xpm37" index="111" slack="0"/>
  <constraint name="xp37" index="112" slack="0"/>
  <constraint name="xm37" index="113" slack="0"/>
  <constraint name="xpm38" index="114" slack="0"/>
  <constraint name="xp38" index="115" slack="0"/>
  <constraint name="xm38" index="116" slack="0"/>
  <constraint name="xpm39" index="117" slack="0"/>
  <constraint name="xp39" index="118" slack="0"/>
  <constraint name="xm39" index="119" slack="0"/>
  <constraint name="zp0" index="120" slack="-17"/>
  <constraint name="zm0" index="121" slack="0"/>
  <constraint name="zpm0" index="122" slack="0"/>
  <constraint name="zp1" index="123" slack="-4"/>
  <constraint name="zm1" index="124" slack="0"/>
  <constraint name="zpm1" index="125" slack="0"/>
  <constraint name="zp2" index="126" slack="0"/>
  <constraint name="zm2" index="127" slack="-13"/>
  <constraint name="zpm2" index="128" slack="0"/>
  <constraint name="zp3" index="129" slack="-13"/>
  <constraint name="zm3" index="130" slack="0"/>
  <constraint name="zpm3" index="131" slack="0"/>
  <constraint name="zp4" index="132" slack="-9"/>
  <constraint name="zm4" index="133" slack="0"/>
  <constraint name="zpm4" index="134" slack="0"/>
  <constraint name="zp5" index="135" slack="0"/>
  <constraint name="zm5" index="136" slack="-16"/>
  <constraint name="zpm5" index="137" slack="0"/>
  <constraint name="zp6" index="138" slack="-17"/>
  <constraint name="zm6" index="139" slack="0"/>
  <constraint name="zpm6" index="140" slack="0"/>
  <constraint name="zp7" index="141" slack="-7"/>
  <constraint name="zm7" index="142" slack="0"/>
  <constraint name="zpm7" index="143" slack="0"/>
  <constraint name="zp8" index="144" slack="0"/>
  <constraint name="zm8" index="145" slack="-11"/>
  <constraint name="zpm8" index="146" slack="0"/>
  <constraint name="zp9" index="147" slack="0"/>
  <constraint name="zm9" index="148" slack="-18"/>
  <constraint name="zpm9" index="149" slack="0"/>
  <constraint name="zp10" index="150" slack="0"/>
  <constraint name="zm10" index="151" slack="-9"/>
  <constraint name="zpm10" index="152" slack="0"/>
  <constraint name="zp11" index="153" slack="-6"/>
  <constraint name="zm11" index="154" slack="0"/>
  <constraint name="zpm11" index="155" slack="0"/>
  <constraint name="zp12" index="156" slack="0"/>
  <constraint name="zm12" index="157" slack="-12"/>
  <constraint name="zpm12" index="158" slack="0"/>
  <constraint name="zp13" index="159" slack="-7"/>
  <constraint name="zm13" index="160" slack="0"/>
  <constraint name="zpm13" index="161" slack="0"/>
  <constraint name="zp14" index="162" slack="0"/>
  <constraint name="zm14" index="163" slack="-7"/>
  <constraint name="zpm14" index="164" slack="0"/>
  <constraint name="zp15" index="165" slack="0"/>
  <constraint name="zm15" index="166" slack="-5"/>
  <constraint name="zpm15" index="167" slack="0"/>
  <constraint name="zp16" index="168" slack="0"/>
  <constraint name="zm16" index="169" slack="-5"/>
  <constraint name="zpm16" index="170" slack="0"/>
  <constraint name="zp17" index="171" slack="0"/>
  <constraint name="zm17" index="172" slack="-4"/>
  <constraint name="zpm17" index="173" slack="0"/>
  <constraint name="zp18" index="174" slack="-7"/>
  <constraint name="zm18" index="175" slack="0"/>
  <constraint name="zpm18" index="176" slack="0"/>
  <constraint name="zp19" index="177" slack="0"/>
  <constraint name="zm19" index="178" slack="-6"/>
  <constraint name="zpm19" index="179" slack="0"/>
  <constraint name="zp20" index="180" slack="-4"/>
  <constraint name="zm20" index="181" slack="0"/>
  <constraint name="zpm20" index="182" slack="0"/>
  <constraint name="zp21" index="183" slack="0"/>
  <constraint name="zm21" index="184" slack="-4"/>
  <constraint name="zpm21" index="185" slack="0"/>
  <constraint name="zp22" index="186" slack="-3"/>
  <constraint name="zm22" index="187" slack="0"/>
  <constraint name="zpm22" index="188" slack="0"/>
  <constraint name="zp23" index="189" slack="-6"/>
  <constraint name="zm23" index="190" slack="0"/>
  <constraint name="zpm23" index="191" slack="0"/>
  <constraint name="zp24" index="192" slack="-3"/>
  <constraint name="zm24" index="193" slack="0"/>
  <constraint name="zpm24" index="194" slack="0"/>
  <constraint name="zp25" index="195" slack="-3"/>
  <constraint name="zm25" index="196" slack="0"/>
  <constraint name="zpm25" index="197" slack="0"/>
  <constraint name="zp26" index="198" slack="-5"/>
  <constraint name="zm26" index="199" slack="0"/>
  <constraint name="zpm26" index="200" slack="0"/>
  <constraint name="zp27" index="201" slack="0"/>
  <constraint name="zm27" index="202" slack="-3"/>
  <constraint name="zpm27" index="203" slack="0"/>
  <constraint name="zp28" index="204" slack="-2"/>
  <constraint name="zm28" index="205" slack="0"/>
  <constraint name="zpm28" index="206" slack="0"/>
  <constraint name="zp29" index="207" slack="-3"/>
  <constraint name="zm29" index="208" slack="0"/>
  <constraint name="zpm29" index="209" slack="0"/>
  <constraint name="zp30" index="210" slack="0"/>
  <constraint name="zm30" index="211" slack="-2"/>
  <constraint name="zpm30" index="212" slack="0"/>
  <constraint name="zp31" index="213" slack="-3"/>
  <constraint name="zm31" index="214" slack="0"/>
  <constraint name="zpm31" index="215" slack="0"/>
  <constraint name="zp32" index="216" slack="-3"/>
  <constraint name="zm32" index="217" slack="0"/>
  <constraint name="zpm32" index="218" slack="0"/>
  <constraint name="zp33" index="219" slack="-3"/>
  <constraint name="zm33" index="220" slack="0"/>
  <constraint name="zpm33" index="221" slack="0"/>
  <constraint name="zp34" index="222" slack="0"/>
  <constraint name="zm34" index="223" slack="-3"/>
  <constraint name="zpm34" index="224" slack="0"/>
  <constraint name="zp35" index="225" slack="-3"/>
  <constraint name="zm35" index="226" slack="0"/>
  <constraint name="zpm35" index="227" slack="0"/>
  <constraint name="zp36" index="228" slack="-3"/>
  <constraint name="zm36" index="229" slack="0"/>
  <constraint name="zpm36" index="230" slack="0"/>
  <constraint name="zp37" index="231" slack="0"/>
  <constraint name="zm37" index="232" slack="-2"/>
  <constraint name="zpm37" index="233" slack="0"/>
  <constraint name="zp38" index="234" slack="-2"/>
  <constraint name="zm38" index="235" slack="0"/>
  <constraint name="zpm38" index="236" slack="0"/>
  <constraint name="zp39" index="237" slack="0"/>
  <constraint name="zm39" index="238" slack="-2"/>
  <constraint name="zpm39" index="239" slack="0"/>
  <constraint name="zerocons" index="240" slack="-41"/>
 </linearConstraints>
 <variables>
  <variable name="x0" index="0" value="4"/>
  <variable name="x1" index="1" value="2"/>
  <variable name="x2" index="2" value="0"/>
  <variable name="x3" index="3" value="3"/>
  <variable name="x4" index="4" value="3"/>
  <variable name="x5" index="5" value="-3"/>
  <variable name="x6" index="6" value="4"/>
  <variable name="x7" index="7" value="0"/>
  <variable name="x8" index="8" value="-2"/>
  <variable name="x9" index="9" value="-4"/>
  <variable name="x10" index="10" value="-1"/>
  <variable name="x11" index="11" value="1"/>
  <variable name="x12" index="12" value="-1"/>
  <variable name="x13" index="13" value="1"/>
  <variable name="x14" index="14" value="-1"/>
  <variable name="x15" index="15" value="0"/>
  <variable name="x16" index="16" value="-2"/>
  <variable name="x17" index="17" value="0"/>
  <variable name="x18" index="18" value="0"/>
  <variable name="x19" index="19" value="0"/>
  <variable name="x20" index="20" value="1"/>
  <variable name="x21" index="21" value="-1"/>
  <variable name="x22" index="22" value="1"/>
  <variable name="x23" index="23" value="1"/>
  <variable name="x24" index="24" value="1"/>
  <variable name="x25" index="25" value="0"/>
  <variable name="x26" index="26" value="1"/>
  <variable name="x27" index="27" value="-1"/>
  <variable name="x28" index="28" value="1"/>
  <variable name="x29" index="29" value="0"/>
  <variable name="x30" index="30" value="-1"/>
  <variable name="x31" index="31" value="0"/>
  <variable name="x32" index="32" value="1"/>
  <variable name="x33" index="33" value="0"/>
  <variable name="x34" index="34" value="0"/>
  <variable name="x35" index="35" value="0"/>
  <variable name="x36" index="36" value="0"/>
  <variable name="x37" index="37" value="0"/>
  <variable name="x38" index="38" value="0"/>
  <variable name="x39" index="39" value="0"/>
  <variable name="xp0" index="40" value="4"/>
  <variable name="xm0" index="41" value="-0"/>
  <variable name="yp(0,0)" index="42" value="-0"/>
  <variable name="yp(0,1)" index="43" value="-0"/>
  <variable name="yp(0,2)" index="44" value="1"/>
  <variable name="yp(0,3)" index="45" value="-0"/>
  <variable name="yp(0,4)" index="46" value="0"/>
  <variable name="ym(0,0)" index="47" value="-0"/>
  <variable name="ym(0,1)" index="48" value="-0"/>
  <variable name="ym(0,2)" index="49" value="0"/>
  <variable name="ym(0,3)" index="50" value="-0"/>
  <variable name="ym(0,4)" index="51" value="-0"/>
  <variable name="xp1" index="52" value="2"/>
  <variable name="xm1" index="53" value="-0"/>
  <variable name="yp(1,0)" index="54" value="-0"/>
  <variable name="yp(1,1)" index="55" value="1"/>
  <variable name="yp(1,2)" index="56" value="-0"/>
  <variable name="ym(1,0)" index="57" value="0"/>
  <variable name="ym(1,1)" index="58" value="-0"/>
  <variable name="ym(1,2)" index="59" value="-0"/>
  <variable name="xp2" index="60" value="-0"/>
  <variable name="xm2" index="61" value="0"/>
  <variable name="yp(2,0)" index="62" value="0"/>
  <variable name="yp(2,1)" index="63" value="-0"/>
  <variable name="yp(2,2)" index="64" value="-0"/>
  <variable name="yp(2,3)" index="65" value="-0"/>
  <variable name="ym(2,0)" index="66" value="-0"/>
  <variable name="ym(2,1)" index="67" value="-0"/>
  <variable name="ym(2,2)" index="68" value="0"/>
  <variable name="ym(2,3)" index="69" value="-0"/>
  <variable name="xp3" index="70" value="3"/>
  <variable name="xm3" index="71" value="-0"/>
  <variable name="yp(3,0)" index="72" value="1"/>
  <variable name="yp(3,1)" index="73" value="1"/>
  <variable name="yp(3,2)" index="74" value="-0"/>
  <variable name="yp(3,3)" index="75" value="-0"/>
  <variable name="yp(3,4)" index="76" value="-0"/>
  <variable name="ym(3,0)" index="77" value="-0"/>
  <variable name="ym(3,1)" index="78" value="-0"/>
  <variable name="ym(3,2)" index="79" value="-0"/>
  <variable name="ym(3,3)" index="80" value="-0"/>
  <variable name="ym(3,4)" index="81" value="0"/>
  <variable name="xp4" index="82" value="2.9999999999999996"/>
  <variable name="xm4" index="83" value="-0"/>
  <variable name="yp(4,0)" index="84" value="0.99999999999999956"/>
  <variable name="yp(4,1)" index="85" value="1"/>
  <variable name="yp(4,2)" index="86" value="-0"/>
  <variable name="yp(4,3)" index="87" value="-0"/>
  <variable name="ym(4,0)" index="88" value="0"/>
  <variable name="ym(4,1)" index="89" value="-0"/>
  <variable name="ym(4,2)" index="90" value="-0"/>
  <variable name="ym(4,3)" index="91" value="-0"/>
  <variable name="xp5" index="92" value="-0"/>
  <variable name="xm5" index="93" value="3"/>
  <variable name="yp(5,0)" index="94" value="-0"/>
  <variable name="yp(5,1)" index="95" value="0"/>
  <variable name="yp(5,2)" index="96" value="-0"/>
  <variable name="yp(5,3)" index="97" value="-0"/>
  <variable name="yp(5,4)" index="98" value="-0"/>
  <variable name="ym(5,0)" index="99" value="1"/>
  <variable name="ym(5,1)" index="100" value="1"/>
  <variable name="ym(5,2)" index="101" value="-0"/>
  <variable name="ym(5,3)" index="102" value="-0"/>
  <variable name="ym(5,4)" index="103" value="-0"/>
  <variable name="xp6" index="104" value="4"/>
  <variable name="xm6" index="105" value="-0"/>
  <variable name="yp(6,0)" index="106" value="0"/>
  <variable name="yp(6,1)" index="107" value="-0"/>
  <variable name="yp(6,2)" index="108" value="1"/>
  <variable name="yp(6,3)" index="109" value="-0"/>
  <variable name="yp(6,4)" index="110" value="-0"/>
  <variable name="ym(6,0)" index="111" value="0"/>
  <variable name="ym(6,1)" index="112" value="-0"/>
  <variable name="ym(6,2)" index="113" value="-0"/>
  <variable name="ym(6,3)" index="114" value="-0"/>
  <variable name="ym(6,4)" index="115" value="-0"/>
  <variable name="xp7" index="116" value="-0"/>
  <variable name="xm7" index="117" value="0"/>
  <variable name="yp(7,0)" index="118" value="0"/>
  <variable name="yp(7,1)" index="119" value="-0"/>
  <variable name="yp(7,2)" index="120" value="-0"/>
  <variable name="ym(7,0)" index="121" value="0"/>
  <variable name="ym(7,1)" index="122" value="-0"/>
  <variable name="ym(7,2)" index="123" value="-0"/>
  <variable name="xp8" index="124" value="-0"/>
  <variable name="xm8" index="125" value="2"/>
  <variable name="yp(8,0)" index="126" value="-0"/>
  <variable name="yp(8,1)" index="127" value="-0"/>
  <variable name="yp(8,2)" index="128" value="0"/>
  <variable name="yp(8,3)" index="129" value="-0"/>
  <variable name="ym(8,0)" index="130" value="0"/>
  <variable name="ym(8,1)" index="131" value="1"/>
  <variable name="ym(8,2)" index="132" value="-0"/>
  <variable name="ym(8,3)" index="133" value="-0"/>
  <variable name="xp9" index="134" value="0"/>
  <variable name="xm9" index="135" value="4"/>
  <variable name="yp(9,0)" index="136" value="0"/>
  <variable name="yp(9,1)" index="137" value="-0"/>
  <variable name="yp(9,2)" index="138" value="-0"/>
  <variable name="yp(9,3)" index="139" value="-0"/>
  <variable name="yp(9,4)" index="140" value="-0"/>
  <variable name="ym(9,0)" index="141" value="-0"/>
  <variable name="ym(9,1)" index="142" value="-0"/>
  <variable name="ym(9,2)" index="143" value="1"/>
  <variable name="ym(9,3)" index="144" value="-0"/>
  <variable name="ym(9,4)" index="145" value="-0"/>
  <variable name="xp10" index="146" value="-0"/>
  <variable name="xm10" index="147" value="1"/>
  <variable name="yp(10,0)" index="148" value="-0"/>
  <variable name="yp(10,1)" index="149" value="0"/>
  <variable name="yp(10,2)" index="150" value="-0"/>
  <variable name="yp(10,3)" index="151" value="-0"/>
  <variable name="ym(10,0)" index="152" value="1"/>
  <variable name="ym(10,1)" index="153" value="-0"/>
  <variable name="ym(10,2)" index="154" value="-0"/>
  <variable name="ym(10,3)" index="155" value="-0"/>
  <variable name="xp11" index="156" value="1"/>
  <variable name="xm11" index="157" value="-0"/>
  <variable name="yp(11,0)" index="158" value="1"/>
  <variable name="yp(11,1)" index="159" value="-0"/>
  <variable name="yp(11,2)" index="160" value="0"/>
  <variable name="ym(11,0)" index="161" value="-0"/>
  <variable name="ym(11,1)" index="162" value="0"/>
  <variable name="ym(11,2)" index="163" value="-0"/>
  <variable name="xp12" index="164" value="-0"/>
  <variable name="xm12" index="165" value="0.99999999999999989"/>
  <variable name="yp(12,0)" index="166" value="0"/>
  <variable name="yp(12,1)" index="167" value="-0"/>
  <variable name="yp(12,2)" index="168" value="-0"/>
  <variable name="yp(12,3)" index="169" value="-0"/>
  <variable name="ym(12,0)" index="170" value="0.99999999999999989"/>
  <variable name="ym(12,1)" index="171" value="-0"/>
  <variable name="ym(12,2)" index="172" value="-0"/>
  <variable name="ym(12,3)" index="173" value="-0"/>
  <variable name="xp13" index="174" value="1"/>
  <variable name="xm13" index="175" value="0"/>
  <variable name="yp(13,0)" index="176" value="1"/>
  <variable name="yp(13,1)" index="177" value="-0"/>
  <variable name="yp(13,2)" index="178" value="-0"/>
  <variable name="yp(13,3)" index="179" value="-0"/>
  <variable name="ym(13,0)" index="180" value="-0"/>
  <variable name="ym(13,1)" index="181" value="-0"/>
  <variable name="ym(13,2)" index="182" value="-0"/>
  <variable name="ym(13,3)" index="183" value="-0"/>
  <variable name="xp14" index="184" value="0"/>
  <variable name="xm14" index="185" value="1"/>
  <variable name="yp(14,0)" index="186" value="0"/>
  <variable name="yp(14,1)" index="187" value="-0"/>
  <variable name="yp(14,2)" index="188" value="-0"/>
  <variable name="yp(14,3)" index="189" value="-0"/>
  <variable name="ym(14,0)" index="190" value="1"/>
  <variable name="ym(14,1)" index="191" value="0"/>
  <variable name="ym(14,2)" index="192" value="-0"/>
  <variable name="ym(14,3)" index="193" value="-0"/>
  <variable name="xp15" index="194" value="0"/>
  <variable name="xm15" index="195" value="-0"/>
  <variable name="yp(15,0)" index="196" value="0"/>
  <variable name="yp(15,1)" index="197" value="-0"/>
  <variable name="yp(15,2)" index="198" value="-0"/>
  <variable name="ym(15,0)" index="199" value="0"/>
  <variable name="ym(15,1)" index="200" value="-0"/>
  <variable name="ym(15,2)" index="201" value="-0"/>
  <variable name="xp16" index="202" value="-0"/>
  <variable name="xm16" index="203" value="2"/>
  <variable name="yp(16,0)" index="204" value="0"/>
  <variable name="yp(16,1)" index="205" value="-0"/>
  <variable name="yp(16,2)" index="206" value="-0"/>
  <variable name="ym(16,0)" index="207" value="-0"/>
  <variable name="ym(16,1)" index="208" value="1"/>
  <variable name="ym(16,2)" index="209" value="-0"/>
  <variable name="xp17" index="210" value="-0"/>
  <variable name="xm17" index="211" value="0"/>
  <variable name="yp(17,0)" index="212" value="0"/>
  <variable name="yp(17,1)" index="213" value="-0"/>
  <variable name="yp(17,2)" index="214" value="-0"/>
  <variable name="ym(17,0)" index="215" value="0"/>
  <variable name="ym(17,1)" index="216" value="-0"/>
  <variable name="ym(17,2)" index="217" value="-0"/>
  <variable name="xp18" index="218" value="0"/>
  <variable name="xm18" index="219" value="-0"/>
  <variable name="yp(18,0)" index="220" value="0"/>
  <variable name="yp(18,1)" index="221" value="-0"/>
  <variable name="yp(18,2)" index="222" value="-0"/>
  <variable name="ym(18,0)" index="223" value="0"/>
  <variable name="ym(18,1)" index="224" value="-0"/>
  <variable name="ym(18,2)" index="225" value="-0"/>
  <variable name="xp19" index="226" value="0"/>
  <variable name="xm19" index="227" value="0"/>
  <variable name="yp(19,0)" index="228" value="0"/>
  <variable name="yp(19,1)" index="229" value="-0"/>
  <variable name="yp(19,2)" index="230" value="-0"/>
  <variable name="ym(19,0)" index="231" value="0"/>
  <variable name="ym(19,1)" index="232" value="-0"/>
  <variable name="ym(19,2)" index="233" value="-0"/>
  <variable name="xp20" index="234" value="1"/>
  <variable name="xm20" index="235" value="-0"/>
  <variable name="yp(20,0)" index="236" value="1"/>
  <variable name="yp(20,1)" index="237" value="0"/>
  <variable name="yp(20,2)" index="238" value="-0"/>
  <variable name="ym(20,0)" index="239" value="-0"/>
  <variable name="ym(20,1)" index="240" value="0"/>
  <variable name="ym(20,2)" index="241" value="-0"/>
  <variable name="xp21" index="242" value="-0"/>
  <variable name="xm21" index="243" value="0.99999999999999989"/>
  <variable name="yp(21,0)" index="244" value="0"/>
  <variable name="yp(21,1)" index="245" value="-0"/>
  <variable name="yp(21,2)" index="246" value="-0"/>
  <variable name="ym(21,0)" index="247" value="0.99999999999999989"/>
  <variable name="ym(21,1)" index="248" value="-0"/>
  <variable name="ym(21,2)" index="249" value="-0"/>
  <variable name="xp22" index="250" value="1"/>
  <variable name="xm22" index="251" value="-0"/>
  <variable name="yp(22,0)" index="252" value="1"/>
  <variable name="yp(22,1)" index="253" value="-0"/>
  <variable name="yp(22,2)" index="254" value="-0"/>
  <variable name="ym(22,0)" index="255" value="-0"/>
  <variable name="ym(22,1)" index="256" value="-0"/>
  <variable name="ym(22,2)" index="257" value="0"/>
  <variable name="xp23" index="258" value="1"/>
  <variable name="xm23" index="259" value="-0"/>
  <variable name="yp(23,0)" index="260" value="1"/>
  <variable name="yp(23,1)" index="261" value="0"/>
  <variable name="yp(23,2)" index="262" value="-0"/>
  <variable name="ym(23,0)" index="263" value="-0"/>
  <variable name="ym(23,1)" index="264" value="0"/>
  <variable name="ym(23,2)" index="265" value="-0"/>
  <variable name="xp24" index="266" value="1"/>
  <variable name="xm24" index="267" value="-0"/>
  <variable name="yp(24,0)" index="268" value="1"/>
  <variable name="yp(24,1)" index="269" value="-0"/>
  <variable name="yp(24,2)" index="270" value="0"/>
  <variable name="ym(24,0)" index="271" value="-0"/>
  <variable name="ym(24,1)" index="272" value="-0"/>
  <variable name="ym(24,2)" index="273" value="0"/>
  <variable name="xp25" index="274" value="-0"/>
  <variable name="xm25" index="275" value="0"/>
  <variable name="yp(25,0)" index="276" value="0"/>
  <variable name="yp(25,1)" index="277" value="-0"/>
  <variable name="ym(25,0)" index="278" value="-0"/>
  <variable name="ym(25,1)" index="279" value="-0"/>
  <variable name="xp26" index="280" value="1"/>
  <variable name="xm26" index="281" value="-0"/>
  <variable name="yp(26,0)" index="282" value="1"/>
  <variable name="yp(26,1)" index="283" value="-0"/>
  <variable name="yp(26,2)" index="284" value="-0"/>
  <variable name="ym(26,0)" index="285" value="-0"/>
  <variable name="ym(26,1)" index="286" value="0"/>
  <variable name="ym(26,2)" index="287" value="-0"/>
  <variable name="xp27" index="288" value="-0"/>
  <variable name="xm27" index="289" value="1"/>
  <variable name="yp(27,0)" index="290" value="-0"/>
  <variable name="yp(27,1)" index="291" value="-0"/>
  <variable name="yp(27,2)" index="292" value="0"/>
  <variable name="ym(27,0)" index="293" value="1"/>
  <variable name="ym(27,1)" index="294" value="0"/>
  <variable name="ym(27,2)" index="295" value="-0"/>
  <variable name="xp28" index="296" value="1"/>
  <variable name="xm28" index="297" value="-0"/>
  <variable name="yp(28,0)" index="298" value="1"/>
  <variable name="yp(28,1)" index="299" value="-0"/>
  <variable name="ym(28,0)" index="300" value="0"/>
  <variable name="ym(28,1)" index="301" value="-0"/>
  <variable name="xp29" index="302" value="0"/>
  <variable name="xm29" index="303" value="-0"/>
  <variable name="yp(29,0)" index="304" value="0"/>
  <variable name="yp(29,1)" index="305" value="-0"/>
  <variable name="ym(29,0)" index="306" value="-0"/>
  <variable name="ym(29,1)" index="307" value="0"/>
  <variable name="xp30" index="308" value="-0"/>
  <variable name="xm30" index="309" value="1"/>
  <variable name="yp(30,0)" index="310" value="0"/>
  <variable name="yp(30,1)" index="311" value="-0"/>
  <variable name="ym(30,0)" index="312" value="1"/>
  <variable name="ym(30,1)" index="313" value="-0"/>
  <variable name="xp31" index="314" value="0"/>
  <variable name="xm31" index="315" value="-0"/>
  <variable name="yp(31,0)" index="316" value="0"/>
  <variable name="yp(31,1)" index="317" value="-0"/>
  <variable name="ym(31,0)" index="318" value="-0"/>
  <variable name="ym(31,1)" index="319" value="0"/>
  <variable name="xp32" index="320" value="1"/>
  <variable name="xm32" index="321" value="0"/>
  <variable name="yp(32,0)" index="322" value="1"/>
  <variable name="yp(32,1)" index="323" value="-0"/>
  <variable name="yp(32,2)" index="324" value="-0"/>
  <variable name="ym(32,0)" index="325" value="-0"/>
  <variable name="ym(32,1)" index="326" value="-0"/>
  <variable name="ym(32,2)" index="327" value="-0"/>
  <variable name="xp33" index="328" value="0"/>
  <variable name="xm33" index="329" value="-0"/>
  <variable name="yp(33,0)" index="330" value="0"/>
  <variable name="yp(33,1)" index="331" value="-0"/>
  <variable name="ym(33,0)" index="332" value="0"/>
  <variable name="ym(33,1)" index="333" value="-0"/>
  <variable name="xp34" index="334" value="-0"/>
  <variable name="xm34" index="335" value="0"/>
  <variable name="yp(34,0)" index="336" value="-0"/>
  <variable name="yp(34,1)" index="337" value="0"/>
  <variable name="ym(34,0)" index="338" value="-0"/>
  <variable name="ym(34,1)" index="339" value="0"/>
  <variable name="xp35" index="340" value="-0"/>
  <variable name="xm35" index="341" value="0"/>
  <variable name="yp(35,0)" index="342" value="0"/>
  <variable name="yp(35,1)" index="343" value="-0"/>
  <variable name="ym(35,0)" index="344" value="-0"/>
  <variable name="ym(35,1)" index="345" value="0"/>
  <variable name="xp36" index="346" value="-0"/>
  <variable name="xm36" index="347" value="0"/>
  <variable name="yp(36,0)" index="348" value="0"/>
  <variable name="yp(36,1)" index="349" value="-0"/>
  <variable name="ym(36,0)" index="350" value="0"/>
  <variable name="ym(36,1)" index="351" value="-0"/>
  <variable name="xp37" index="352" value="0"/>
  <variable name="xm37" index="353" value="0"/>
  <variable name="yp(37,0)" index="354" value="-0"/>
  <variable name="yp(37,1)" index="355" value="0"/>
  <variable name="ym(37,0)" index="356" value="0"/>
  <variable name="ym(37,1)" index="357" value="-0"/>
  <variable name="xp38" index="358" value="0"/>
  <variable name="xm38" index="359" value="-0"/>
  <variable name="yp(38,0)" index="360" value="0"/>
  <variable name="yp(38,1)" index="361" value="-0"/>
  <variable name="ym(38,0)" index="362" value="-0"/>
  <variable name="ym(38,1)" index="363" value="0"/>
  <variable name="xp39" index="364" value="-0"/>
  <variable name="xm39" index="365" value="0"/>
  <variable name="yp(39,0)" index="366" value="-0"/>
  <variable name="yp(39,1)" index="367" value="0"/>
  <variable name="ym(39,0)" index="368" value="-0"/>
  <variable name="ym(39,1)" index="369" value="0"/>
  <variable name="zp0" index="370" value="1"/>
  <variable name="zm0" index="371" value="-0"/>
  <variable name="zp1" index="372" value="1"/>
  <variable name="zm1" index="373" value="-0"/>
  <variable name="zp2" index="374" value="0"/>
  <variable name="zm2" index="375" value="1"/>
  <variable name="zp3" index="376" value="1"/>
  <variable name="zm3" index="377" value="0"/>
  <variable name="zp4" index="378" value="1"/>
  <variable name="zm4" index="379" value="0"/>
  <variable name="zp5" index="380" value="0"/>
  <variable name="zm5" index="381" value="1"/>
  <variable name="zp6" index="382" value="1"/>
  <variable name="zm6" index="383" value="-0"/>
  <variable name="zp7" index="384" value="1"/>
  <variable name="zm7" index="385" value="0"/>
  <variable name="zp8" index="386" value="0"/>
  <variable name="zm8" index="387" value="1"/>
  <variable name="zp9" index="388" value="0"/>
  <variable name="zm9" index="389" value="1"/>
  <variable name="zp10" index="390" value="0"/>
  <variable name="zm10" index="391" value="1"/>
  <variable name="zp11" index="392" value="1"/>
  <variable name="zm11" index="393" value="-0"/>
  <variable name="zp12" index="394" value="0"/>
  <variable name="zm12" index="395" value="1"/>
  <variable name="zp13" index="396" value="1"/>
  <variable name="zm13" index="397" value="0"/>
  <variable name="zp14" index="398" value="0"/>
  <variable name="zm14" index="399" value="1"/>
  <variable name="zp15" index="400" value="0"/>
  <variable name="zm15" index="401" value="1"/>
  <variable name="zp16" index="402" value="0"/>
  <variable name="zm16" index="403" value="1"/>
  <variable name="zp17" index="404" value="0"/>
  <variable name="zm17" index="405" value="1"/>
  <variable name="zp18" index="406" value="1"/>
  <variable name="zm18" index="407" value="0"/>
  <variable name="zp19" index="408" value="0"/>
  <variable name="zm19" index="409" value="1"/>
  <variable name="zp20" index="410" value="1"/>
  <variable name="zm20" index="411" value="0"/>
  <variable name="zp21" index="412" value="0"/>
  <variable name="zm21" index="413" value="1"/>
  <variable name="zp22" index="414" value="1"/>
  <variable name="zm22" index="415" value="-0"/>
  <variable name="zp23" index="416" value="1"/>
  <variable name="zm23" index="417" value="0"/>
  <variable name="zp24" index="418" value="1"/>
  <variable name="zm24" index="419" value="-0"/>
  <variable name="zp25" index="420" value="1"/>
  <variable name="zm25" index="421" value="-0"/>
  <variable name="zp26" index="422" value="1"/>
  <variable name="zm26" index="423" value="-0"/>
  <variable name="zp27" index="424" value="0"/>
  <variable name="zm27" index="425" value="1"/>
  <variable name="zp28" index="426" value="1"/>
  <variable name="zm28" index="427" value="0"/>
  <variable name="zp29" index="428" value="1"/>
  <variable name="zm29" index="429" value="0"/>
  <variable name="zp30" index="430" value="0"/>
  <variable name="zm30" index="431" value="1"/>
  <variable name="zp31" index="432" value="1"/>
  <variable name="zm31" index="433" value="0"/>
  <variable name="zp32" index="434" value="1"/>
  <variable name="zm32" index="435" value="-0"/>
  <variable name="zp33" index="436" value="1"/>
  <variable name="zm33" index="437" value="0"/>
  <variable name="zp34" index="438" value="0"/>
  <variable name="zm34" index="439" value="1"/>
  <variable name="zp35" index="440" value="1"/>
  <variable name="zm35" index="441" value="0"/>
  <variable name="zp36" index="442" value="1"/>
  <variable name="zm36" index="443" value="0"/>
  <variable name="zp37" index="444" value="0"/>
  <variable name="zm37" index="445" value="1"/>
  <variable name="zp38" index="446" value="1"/>
  <variable name="zm38" index="447" value="0"/>
  <variable name="zp39" index="448" value="0"/>
  <variable name="zm39" index="449" value="1"/>
 </variables>
</CPLEXSolution>
